
Gurobi 8.1.1 (win64, Python) logging started 12/28/19 00:37:18

Academic license - for non-commercial use only

Gurobi 8.1.1 (win64, Python) logging started 12/28/19 21:23:37

Academic license - for non-commercial use only

Gurobi 8.1.1 (win64, Python) logging started 12/28/19 21:43:12

Academic license - for non-commercial use only
